solution status: optimal solution found
objective value:                                    0
one.ctrl_s[1].hole_y                               16 	(obj:0)
one.ctrl_s[1].hole_z                               16 	(obj:0)
one.ctrl_s[1].flush_y                              16 	(obj:0)
one.ctrl_s[1].flush_z                              15 	(obj:0)
one.thingy.devices[0].thingy.vp0_y                   17 	(obj:0)
one.thingy.devices[0].thingy.vp0_z                   18 	(obj:0)
one.thingy.devices[0].thingy.vp3_y                   17 	(obj:0)
one.thingy.devices[0].thingy.vp3_z                   16 	(obj:0)
